500
400
320
320
320
319
319
319
318
318
317
317
316
316
316
315
313
313
312
312
311
311
311
310
310
309
308
307
307
306
305
305
305
305
305
304
304
304
304
304
303
303
303
303
302
301
300
300
300
299
299
299
299
298
298
297
297
296
296
295
294
294
293
290
290
290
289
289
288
287
285
285
285
285
285
283
283
282
281
281
281
280
280
279
279
279
278
278
277
275
275
273
273
273
273
272
272
272
271
271
270
269
269
268
268
268
267
267
267
266
265
265
264
264
264
263
263
262
262
261
261
260
260
258
257
257
256
255
255
255
253
253
253
252
252
251
251
251
251
251
250
250
250
249
249
249
249
248
248
248
247
247
247
246
246
245
245
245
244
244
244
243
243
242
241
241
241
240
240
240
239
239
239
238
238
237
236
234
234
233
233
233
232
232
231
231
231
230
230
230
230
230
228
228
227
227
227
226
225
225
224
224
222
222
221
221
220
220
220
219
219
219
219
218
218
218
218
216
216
216
215
214
214
213
213
213
212
212
212
209
209
209
208
207
206
206
206
206
205
205
204
204
204
203
203
202
202
202
201
200
199
199
199
199
198
198
198
198
198
197
196
196
196
195
195
195
193
192
192
191
190
190
190
189
188
188
188
186
186
185
185
185
184
184
183
183
181
181
180
180
179
179
179
178
178
178
177
176
175
175
174
174
174
173
173
172
172
172
171
171
171
171
169
169
167
166
166
166
164
164
164
162
162
162
162
162
162
161
161
161
161
160
160
160
160
160
159
159
158
158
157
157
157
157
157
154
154
152
152
152
151
151
150
150
150
149
149
148
147
147
147
146
145
144
144
144
144
143
143
142
142
141
141
141
141
141
141
140
140
139
139
138
137
137
136
136
136
136
135
135
135
134
134
133
132
132
132
131
130
129
129
129
128
127
127
127
127
127
126
125
124
124
124
124
123
122
122
121
121
120
120
119
119
119
118
117
116
116
116
115
115
114
114
113
113
112
110
110
110
110
110
108
108
108
108
107
106
106
106
106
105
105
105
104
103
102
102
102
101
101
101
100
100
100
99
98
97
97
96
96
95
94
94
93
93
92
92
91
90
90
89
89
87
87
87
86
86
86
85
85
85
84
84
83
83
83
82
82
81
80
80
80
